NAME : mr46
COMMENT : 46-city problem (DISC)
TYPE : TSP
DIMENSION : 46
EDGE_WEIGHT_TYPE : EUC_2D
NODE_COORD_SECTION
1 79 17
2 64 20
3 25 11
4 76 53
5 32 1
6 94 80
7 5 14
8 45 11
9 92 43
10 46 22
11 51 84
12 9 1
13 43 15
14 75 70
15 87 15
16 33 88
17 11 52
18 81 43
19 40 2
20 63 50
21 4 95
22 30 35
23 5 41
24 38 83
25 27 72
26 100 49
27 40 24
28 31 68
29 23 58
30 50 45
31 6 58
32 29 32
33 24 66
34 97 10
35 62 37
36 87 58
37 10 82
38 15 47
39 68 63
40 98 56
41 3 34
42 91 14
43 6 91
44 76 23
45 7 22
46 26 18
EOF
